; Benchmark for LTL-sketching problem
(set-logic QF_UF)
(set-info :status unknown)
(declare-fun z_1_0_0 () Bool)
(declare-fun z_0_0_0 () Bool)
(declare-fun z_1_1_0 () Bool)
(declare-fun z_0_1_0 () Bool)
(declare-fun z_1_2_0 () Bool)
(declare-fun z_0_2_0 () Bool)
(declare-fun z_1_3_0 () Bool)
(declare-fun z_0_3_0 () Bool)
(declare-fun z_1_4_0 () Bool)
(declare-fun z_0_4_0 () Bool)
(declare-fun z_1_5_0 () Bool)
(declare-fun z_0_5_0 () Bool)
(declare-fun z_1_6_0 () Bool)
(declare-fun z_0_6_0 () Bool)
(declare-fun z_1_7_0 () Bool)
(declare-fun z_0_7_0 () Bool)
(declare-fun z_1_8_0 () Bool)
(declare-fun z_0_8_0 () Bool)
(declare-fun z_1_9_0 () Bool)
(declare-fun z_0_9_0 () Bool)
(declare-fun z_1_10_8 () Bool)
(declare-fun z_1_10_7 () Bool)
(declare-fun z_1_10_6 () Bool)
(declare-fun z_1_10_5 () Bool)
(declare-fun z_1_10_4 () Bool)
(declare-fun z_1_10_3 () Bool)
(declare-fun z_1_10_2 () Bool)
(declare-fun z_1_10_1 () Bool)
(declare-fun z_1_10_0 () Bool)
(declare-fun z_0_10_0 () Bool)
(declare-fun z_0_10_1 () Bool)
(declare-fun z_0_10_2 () Bool)
(declare-fun z_0_10_3 () Bool)
(declare-fun z_0_10_4 () Bool)
(declare-fun z_0_10_5 () Bool)
(declare-fun z_0_10_6 () Bool)
(declare-fun z_0_10_7 () Bool)
(declare-fun z_0_10_8 () Bool)
(declare-fun z_1_11_9 () Bool)
(declare-fun z_1_11_8 () Bool)
(declare-fun z_1_11_7 () Bool)
(declare-fun z_1_11_6 () Bool)
(declare-fun z_1_11_5 () Bool)
(declare-fun z_1_11_4 () Bool)
(declare-fun z_1_11_3 () Bool)
(declare-fun z_1_11_2 () Bool)
(declare-fun z_1_11_1 () Bool)
(declare-fun z_1_11_0 () Bool)
(declare-fun z_0_11_0 () Bool)
(declare-fun z_0_11_1 () Bool)
(declare-fun z_0_11_2 () Bool)
(declare-fun z_0_11_3 () Bool)
(declare-fun z_0_11_4 () Bool)
(declare-fun z_0_11_5 () Bool)
(declare-fun z_0_11_6 () Bool)
(declare-fun z_0_11_7 () Bool)
(declare-fun z_0_11_8 () Bool)
(declare-fun z_0_11_9 () Bool)
(declare-fun z_1_12_10 () Bool)
(declare-fun z_1_12_9 () Bool)
(declare-fun z_1_12_8 () Bool)
(declare-fun z_1_12_7 () Bool)
(declare-fun z_1_12_6 () Bool)
(declare-fun z_1_12_5 () Bool)
(declare-fun z_1_12_4 () Bool)
(declare-fun z_1_12_3 () Bool)
(declare-fun z_1_12_2 () Bool)
(declare-fun z_1_12_1 () Bool)
(declare-fun z_1_12_0 () Bool)
(declare-fun z_0_12_0 () Bool)
(declare-fun z_0_12_1 () Bool)
(declare-fun z_0_12_2 () Bool)
(declare-fun z_0_12_3 () Bool)
(declare-fun z_0_12_4 () Bool)
(declare-fun z_0_12_5 () Bool)
(declare-fun z_0_12_6 () Bool)
(declare-fun z_0_12_7 () Bool)
(declare-fun z_0_12_8 () Bool)
(declare-fun z_0_12_9 () Bool)
(declare-fun z_0_12_10 () Bool)
(declare-fun z_1_13_8 () Bool)
(declare-fun z_1_13_7 () Bool)
(declare-fun z_1_13_6 () Bool)
(declare-fun z_1_13_5 () Bool)
(declare-fun z_1_13_4 () Bool)
(declare-fun z_1_13_3 () Bool)
(declare-fun z_1_13_2 () Bool)
(declare-fun z_1_13_1 () Bool)
(declare-fun z_1_13_0 () Bool)
(declare-fun z_0_13_0 () Bool)
(declare-fun z_0_13_1 () Bool)
(declare-fun z_0_13_2 () Bool)
(declare-fun z_0_13_3 () Bool)
(declare-fun z_0_13_4 () Bool)
(declare-fun z_0_13_5 () Bool)
(declare-fun z_0_13_6 () Bool)
(declare-fun z_0_13_7 () Bool)
(declare-fun z_0_13_8 () Bool)
(declare-fun z_1_14_5 () Bool)
(declare-fun z_1_14_4 () Bool)
(declare-fun z_1_14_3 () Bool)
(declare-fun z_1_14_2 () Bool)
(declare-fun z_1_14_1 () Bool)
(declare-fun z_1_14_0 () Bool)
(declare-fun z_0_14_0 () Bool)
(declare-fun z_0_14_1 () Bool)
(declare-fun z_0_14_2 () Bool)
(declare-fun z_0_14_3 () Bool)
(declare-fun z_0_14_4 () Bool)
(declare-fun z_0_14_5 () Bool)
(declare-fun z_1_15_11 () Bool)
(declare-fun z_1_15_10 () Bool)
(declare-fun z_1_15_9 () Bool)
(declare-fun z_1_15_8 () Bool)
(declare-fun z_1_15_7 () Bool)
(declare-fun z_1_15_6 () Bool)
(declare-fun z_1_15_5 () Bool)
(declare-fun z_1_15_4 () Bool)
(declare-fun z_1_15_3 () Bool)
(declare-fun z_1_15_2 () Bool)
(declare-fun z_1_15_1 () Bool)
(declare-fun z_1_15_0 () Bool)
(declare-fun z_0_15_0 () Bool)
(declare-fun z_0_15_1 () Bool)
(declare-fun z_0_15_2 () Bool)
(declare-fun z_0_15_3 () Bool)
(declare-fun z_0_15_4 () Bool)
(declare-fun z_0_15_5 () Bool)
(declare-fun z_0_15_6 () Bool)
(declare-fun z_0_15_7 () Bool)
(declare-fun z_0_15_8 () Bool)
(declare-fun z_0_15_9 () Bool)
(declare-fun z_0_15_10 () Bool)
(declare-fun z_0_15_11 () Bool)
(declare-fun z_1_16_6 () Bool)
(declare-fun z_1_16_5 () Bool)
(declare-fun z_1_16_4 () Bool)
(declare-fun z_1_16_3 () Bool)
(declare-fun z_1_16_2 () Bool)
(declare-fun z_1_16_1 () Bool)
(declare-fun z_1_16_0 () Bool)
(declare-fun z_0_16_0 () Bool)
(declare-fun z_0_16_1 () Bool)
(declare-fun z_0_16_2 () Bool)
(declare-fun z_0_16_3 () Bool)
(declare-fun z_0_16_4 () Bool)
(declare-fun z_0_16_5 () Bool)
(declare-fun z_0_16_6 () Bool)
(declare-fun z_1_17_11 () Bool)
(declare-fun z_1_17_10 () Bool)
(declare-fun z_1_17_9 () Bool)
(declare-fun z_1_17_8 () Bool)
(declare-fun z_1_17_7 () Bool)
(declare-fun z_1_17_6 () Bool)
(declare-fun z_1_17_5 () Bool)
(declare-fun z_1_17_4 () Bool)
(declare-fun z_1_17_3 () Bool)
(declare-fun z_1_17_2 () Bool)
(declare-fun z_1_17_1 () Bool)
(declare-fun z_1_17_0 () Bool)
(declare-fun z_0_17_0 () Bool)
(declare-fun z_0_17_1 () Bool)
(declare-fun z_0_17_2 () Bool)
(declare-fun z_0_17_3 () Bool)
(declare-fun z_0_17_4 () Bool)
(declare-fun z_0_17_5 () Bool)
(declare-fun z_0_17_6 () Bool)
(declare-fun z_0_17_7 () Bool)
(declare-fun z_0_17_8 () Bool)
(declare-fun z_0_17_9 () Bool)
(declare-fun z_0_17_10 () Bool)
(declare-fun z_0_17_11 () Bool)
(declare-fun z_1_18_7 () Bool)
(declare-fun z_1_18_6 () Bool)
(declare-fun z_1_18_5 () Bool)
(declare-fun z_1_18_4 () Bool)
(declare-fun z_1_18_3 () Bool)
(declare-fun z_1_18_2 () Bool)
(declare-fun z_1_18_1 () Bool)
(declare-fun z_1_18_0 () Bool)
(declare-fun z_0_18_0 () Bool)
(declare-fun z_0_18_1 () Bool)
(declare-fun z_0_18_2 () Bool)
(declare-fun z_0_18_3 () Bool)
(declare-fun z_0_18_4 () Bool)
(declare-fun z_0_18_5 () Bool)
(declare-fun z_0_18_6 () Bool)
(declare-fun z_0_18_7 () Bool)
(declare-fun z_1_19_8 () Bool)
(declare-fun z_1_19_7 () Bool)
(declare-fun z_1_19_6 () Bool)
(declare-fun z_1_19_5 () Bool)
(declare-fun z_1_19_4 () Bool)
(declare-fun z_1_19_3 () Bool)
(declare-fun z_1_19_2 () Bool)
(declare-fun z_1_19_1 () Bool)
(declare-fun z_1_19_0 () Bool)
(declare-fun z_0_19_0 () Bool)
(declare-fun z_0_19_1 () Bool)
(declare-fun z_0_19_2 () Bool)
(declare-fun z_0_19_3 () Bool)
(declare-fun z_0_19_4 () Bool)
(declare-fun z_0_19_5 () Bool)
(declare-fun z_0_19_6 () Bool)
(declare-fun z_0_19_7 () Bool)
(declare-fun z_0_19_8 () Bool)
(assert
 (= z_0_0_0 (and z_1_0_0)))
(assert
 (= z_0_1_0 (and z_1_1_0)))
(assert
 (= z_0_2_0 (and z_1_2_0)))
(assert
 (= z_0_3_0 (and z_1_3_0)))
(assert
 (= z_0_4_0 (and z_1_4_0)))
(assert
 (= z_0_5_0 (and z_1_5_0)))
(assert
 (= z_0_6_0 (and z_1_6_0)))
(assert
 (= z_0_7_0 (and z_1_7_0)))
(assert
 (= z_0_8_0 (and z_1_8_0)))
(assert
 (= z_0_9_0 (and z_1_9_0)))
(assert
 (let (($x83 (and z_1_10_0 z_1_10_1 z_1_10_2 z_1_10_3 z_1_10_4 z_1_10_5 z_1_10_6 z_1_10_7 z_1_10_8)))
 (= z_0_10_0 $x83)))
(assert
 (let (($x86 (and z_1_10_1 z_1_10_2 z_1_10_3 z_1_10_4 z_1_10_5 z_1_10_6 z_1_10_7 z_1_10_8)))
 (= z_0_10_1 $x86)))
(assert
 (let (($x89 (and z_1_10_2 z_1_10_3 z_1_10_4 z_1_10_5 z_1_10_6 z_1_10_7 z_1_10_8)))
 (= z_0_10_2 $x89)))
(assert
 (= z_0_10_3 (and z_1_10_3 z_1_10_4 z_1_10_5 z_1_10_6 z_1_10_7 z_1_10_8)))
(assert
 (let (($x95 (and z_1_10_4 z_1_10_5 z_1_10_6 z_1_10_7 z_1_10_8)))
 (= z_0_10_4 $x95)))
(assert
 (let (($x95 (and z_1_10_4 z_1_10_5 z_1_10_6 z_1_10_7 z_1_10_8)))
 (= z_0_10_5 $x95)))
(assert
 (let (($x95 (and z_1_10_4 z_1_10_5 z_1_10_6 z_1_10_7 z_1_10_8)))
 (= z_0_10_6 $x95)))
(assert
 (let (($x95 (and z_1_10_4 z_1_10_5 z_1_10_6 z_1_10_7 z_1_10_8)))
 (= z_0_10_7 $x95)))
(assert
 (let (($x95 (and z_1_10_4 z_1_10_5 z_1_10_6 z_1_10_7 z_1_10_8)))
 (= z_0_10_8 $x95)))
(assert
 (let (($x116 (and z_1_11_0 z_1_11_1 z_1_11_2 z_1_11_3 z_1_11_4 z_1_11_5 z_1_11_6 z_1_11_7 z_1_11_8 z_1_11_9)))
 (= z_0_11_0 $x116)))
(assert
 (let (($x119 (and z_1_11_1 z_1_11_2 z_1_11_3 z_1_11_4 z_1_11_5 z_1_11_6 z_1_11_7 z_1_11_8 z_1_11_9)))
 (= z_0_11_1 $x119)))
(assert
 (let (($x122 (and z_1_11_2 z_1_11_3 z_1_11_4 z_1_11_5 z_1_11_6 z_1_11_7 z_1_11_8 z_1_11_9)))
 (= z_0_11_2 $x122)))
(assert
 (let (($x125 (and z_1_11_3 z_1_11_4 z_1_11_5 z_1_11_6 z_1_11_7 z_1_11_8 z_1_11_9)))
 (= z_0_11_3 $x125)))
(assert
 (= z_0_11_4 (and z_1_11_4 z_1_11_5 z_1_11_6 z_1_11_7 z_1_11_8 z_1_11_9)))
(assert
 (= z_0_11_5 (and z_1_11_5 z_1_11_6 z_1_11_7 z_1_11_8 z_1_11_9)))
(assert
 (let (($x134 (and z_1_11_6 z_1_11_7 z_1_11_8 z_1_11_9)))
 (= z_0_11_6 $x134)))
(assert
 (let (($x134 (and z_1_11_6 z_1_11_7 z_1_11_8 z_1_11_9)))
 (= z_0_11_7 $x134)))
(assert
 (let (($x134 (and z_1_11_6 z_1_11_7 z_1_11_8 z_1_11_9)))
 (= z_0_11_8 $x134)))
(assert
 (let (($x134 (and z_1_11_6 z_1_11_7 z_1_11_8 z_1_11_9)))
 (= z_0_11_9 $x134)))
(assert
 (let (($x154 (and z_1_12_0 z_1_12_1 z_1_12_2 z_1_12_3 z_1_12_4 z_1_12_5 z_1_12_6 z_1_12_7 z_1_12_8 z_1_12_9 z_1_12_10)))
 (= z_0_12_0 $x154)))
(assert
 (let (($x157 (and z_1_12_1 z_1_12_2 z_1_12_3 z_1_12_4 z_1_12_5 z_1_12_6 z_1_12_7 z_1_12_8 z_1_12_9 z_1_12_10)))
 (= z_0_12_1 $x157)))
(assert
 (let (($x160 (and z_1_12_2 z_1_12_3 z_1_12_4 z_1_12_5 z_1_12_6 z_1_12_7 z_1_12_8 z_1_12_9 z_1_12_10)))
 (= z_0_12_2 $x160)))
(assert
 (let (($x163 (and z_1_12_3 z_1_12_4 z_1_12_5 z_1_12_6 z_1_12_7 z_1_12_8 z_1_12_9 z_1_12_10)))
 (= z_0_12_3 $x163)))
(assert
 (let (($x166 (and z_1_12_4 z_1_12_5 z_1_12_6 z_1_12_7 z_1_12_8 z_1_12_9 z_1_12_10)))
 (= z_0_12_4 $x166)))
(assert
 (let (($x169 (and z_1_12_5 z_1_12_6 z_1_12_7 z_1_12_8 z_1_12_9 z_1_12_10)))
 (= z_0_12_5 $x169)))
(assert
 (let (($x169 (and z_1_12_5 z_1_12_6 z_1_12_7 z_1_12_8 z_1_12_9 z_1_12_10)))
 (= z_0_12_6 $x169)))
(assert
 (let (($x169 (and z_1_12_5 z_1_12_6 z_1_12_7 z_1_12_8 z_1_12_9 z_1_12_10)))
 (= z_0_12_7 $x169)))
(assert
 (let (($x169 (and z_1_12_5 z_1_12_6 z_1_12_7 z_1_12_8 z_1_12_9 z_1_12_10)))
 (= z_0_12_8 $x169)))
(assert
 (let (($x169 (and z_1_12_5 z_1_12_6 z_1_12_7 z_1_12_8 z_1_12_9 z_1_12_10)))
 (= z_0_12_9 $x169)))
(assert
 (let (($x169 (and z_1_12_5 z_1_12_6 z_1_12_7 z_1_12_8 z_1_12_9 z_1_12_10)))
 (= z_0_12_10 $x169)))
(assert
 (let (($x191 (and z_1_13_0 z_1_13_1 z_1_13_2 z_1_13_3 z_1_13_4 z_1_13_5 z_1_13_6 z_1_13_7 z_1_13_8)))
 (= z_0_13_0 $x191)))
(assert
 (let (($x194 (and z_1_13_1 z_1_13_2 z_1_13_3 z_1_13_4 z_1_13_5 z_1_13_6 z_1_13_7 z_1_13_8)))
 (= z_0_13_1 $x194)))
(assert
 (let (($x197 (and z_1_13_2 z_1_13_3 z_1_13_4 z_1_13_5 z_1_13_6 z_1_13_7 z_1_13_8)))
 (= z_0_13_2 $x197)))
(assert
 (= z_0_13_3 (and z_1_13_3 z_1_13_4 z_1_13_5 z_1_13_6 z_1_13_7 z_1_13_8)))
(assert
 (let (($x203 (and z_1_13_4 z_1_13_5 z_1_13_6 z_1_13_7 z_1_13_8)))
 (= z_0_13_4 $x203)))
(assert
 (let (($x203 (and z_1_13_4 z_1_13_5 z_1_13_6 z_1_13_7 z_1_13_8)))
 (= z_0_13_5 $x203)))
(assert
 (let (($x203 (and z_1_13_4 z_1_13_5 z_1_13_6 z_1_13_7 z_1_13_8)))
 (= z_0_13_6 $x203)))
(assert
 (let (($x203 (and z_1_13_4 z_1_13_5 z_1_13_6 z_1_13_7 z_1_13_8)))
 (= z_0_13_7 $x203)))
(assert
 (let (($x203 (and z_1_13_4 z_1_13_5 z_1_13_6 z_1_13_7 z_1_13_8)))
 (= z_0_13_8 $x203)))
(assert
 (= z_0_14_0 (and z_1_14_0 z_1_14_1 z_1_14_2 z_1_14_3 z_1_14_4 z_1_14_5)))
(assert
 (let (($x223 (and z_1_14_1 z_1_14_2 z_1_14_3 z_1_14_4 z_1_14_5)))
 (= z_0_14_1 $x223)))
(assert
 (let (($x223 (and z_1_14_1 z_1_14_2 z_1_14_3 z_1_14_4 z_1_14_5)))
 (= z_0_14_2 $x223)))
(assert
 (let (($x223 (and z_1_14_1 z_1_14_2 z_1_14_3 z_1_14_4 z_1_14_5)))
 (= z_0_14_3 $x223)))
(assert
 (let (($x223 (and z_1_14_1 z_1_14_2 z_1_14_3 z_1_14_4 z_1_14_5)))
 (= z_0_14_4 $x223)))
(assert
 (let (($x223 (and z_1_14_1 z_1_14_2 z_1_14_3 z_1_14_4 z_1_14_5)))
 (= z_0_14_5 $x223)))
(assert
 (let (($x246 (and z_1_15_0 z_1_15_1 z_1_15_2 z_1_15_3 z_1_15_4 z_1_15_5 z_1_15_6 z_1_15_7 z_1_15_8 z_1_15_9 z_1_15_10 z_1_15_11)))
 (= z_0_15_0 $x246)))
(assert
 (let (($x249 (and z_1_15_1 z_1_15_2 z_1_15_3 z_1_15_4 z_1_15_5 z_1_15_6 z_1_15_7 z_1_15_8 z_1_15_9 z_1_15_10 z_1_15_11)))
 (= z_0_15_1 $x249)))
(assert
 (let (($x252 (and z_1_15_2 z_1_15_3 z_1_15_4 z_1_15_5 z_1_15_6 z_1_15_7 z_1_15_8 z_1_15_9 z_1_15_10 z_1_15_11)))
 (= z_0_15_2 $x252)))
(assert
 (let (($x255 (and z_1_15_3 z_1_15_4 z_1_15_5 z_1_15_6 z_1_15_7 z_1_15_8 z_1_15_9 z_1_15_10 z_1_15_11)))
 (= z_0_15_3 $x255)))
(assert
 (let (($x258 (and z_1_15_4 z_1_15_5 z_1_15_6 z_1_15_7 z_1_15_8 z_1_15_9 z_1_15_10 z_1_15_11)))
 (= z_0_15_4 $x258)))
(assert
 (let (($x261 (and z_1_15_5 z_1_15_6 z_1_15_7 z_1_15_8 z_1_15_9 z_1_15_10 z_1_15_11)))
 (= z_0_15_5 $x261)))
(assert
 (let (($x264 (and z_1_15_6 z_1_15_7 z_1_15_8 z_1_15_9 z_1_15_10 z_1_15_11)))
 (= z_0_15_6 $x264)))
(assert
 (let (($x264 (and z_1_15_6 z_1_15_7 z_1_15_8 z_1_15_9 z_1_15_10 z_1_15_11)))
 (= z_0_15_7 $x264)))
(assert
 (let (($x264 (and z_1_15_6 z_1_15_7 z_1_15_8 z_1_15_9 z_1_15_10 z_1_15_11)))
 (= z_0_15_8 $x264)))
(assert
 (let (($x264 (and z_1_15_6 z_1_15_7 z_1_15_8 z_1_15_9 z_1_15_10 z_1_15_11)))
 (= z_0_15_9 $x264)))
(assert
 (let (($x264 (and z_1_15_6 z_1_15_7 z_1_15_8 z_1_15_9 z_1_15_10 z_1_15_11)))
 (= z_0_15_10 $x264)))
(assert
 (let (($x264 (and z_1_15_6 z_1_15_7 z_1_15_8 z_1_15_9 z_1_15_10 z_1_15_11)))
 (= z_0_15_11 $x264)))
(assert
 (let (($x284 (and z_1_16_0 z_1_16_1 z_1_16_2 z_1_16_3 z_1_16_4 z_1_16_5 z_1_16_6)))
 (= z_0_16_0 $x284)))
(assert
 (= z_0_16_1 (and z_1_16_1 z_1_16_2 z_1_16_3 z_1_16_4 z_1_16_5 z_1_16_6)))
(assert
 (= z_0_16_2 (and z_1_16_2 z_1_16_3 z_1_16_4 z_1_16_5 z_1_16_6)))
(assert
 (= z_0_16_3 (and z_1_16_3 z_1_16_4 z_1_16_5 z_1_16_6)))
(assert
 (= z_0_16_4 (and z_1_16_4 z_1_16_5 z_1_16_6)))
(assert
 (let (($x299 (and z_1_16_5 z_1_16_6)))
 (= z_0_16_5 $x299)))
(assert
 (let (($x299 (and z_1_16_5 z_1_16_6)))
 (= z_0_16_6 $x299)))
(assert
 (let (($x316 (and z_1_17_0 z_1_17_1 z_1_17_2 z_1_17_3 z_1_17_4 z_1_17_5 z_1_17_6 z_1_17_7 z_1_17_8 z_1_17_9 z_1_17_10 z_1_17_11)))
 (= z_0_17_0 $x316)))
(assert
 (let (($x319 (and z_1_17_1 z_1_17_2 z_1_17_3 z_1_17_4 z_1_17_5 z_1_17_6 z_1_17_7 z_1_17_8 z_1_17_9 z_1_17_10 z_1_17_11)))
 (= z_0_17_1 $x319)))
(assert
 (let (($x322 (and z_1_17_2 z_1_17_3 z_1_17_4 z_1_17_5 z_1_17_6 z_1_17_7 z_1_17_8 z_1_17_9 z_1_17_10 z_1_17_11)))
 (= z_0_17_2 $x322)))
(assert
 (let (($x325 (and z_1_17_3 z_1_17_4 z_1_17_5 z_1_17_6 z_1_17_7 z_1_17_8 z_1_17_9 z_1_17_10 z_1_17_11)))
 (= z_0_17_3 $x325)))
(assert
 (let (($x328 (and z_1_17_4 z_1_17_5 z_1_17_6 z_1_17_7 z_1_17_8 z_1_17_9 z_1_17_10 z_1_17_11)))
 (= z_0_17_4 $x328)))
(assert
 (let (($x331 (and z_1_17_5 z_1_17_6 z_1_17_7 z_1_17_8 z_1_17_9 z_1_17_10 z_1_17_11)))
 (= z_0_17_5 $x331)))
(assert
 (let (($x334 (and z_1_17_6 z_1_17_7 z_1_17_8 z_1_17_9 z_1_17_10 z_1_17_11)))
 (= z_0_17_6 $x334)))
(assert
 (let (($x334 (and z_1_17_6 z_1_17_7 z_1_17_8 z_1_17_9 z_1_17_10 z_1_17_11)))
 (= z_0_17_7 $x334)))
(assert
 (let (($x334 (and z_1_17_6 z_1_17_7 z_1_17_8 z_1_17_9 z_1_17_10 z_1_17_11)))
 (= z_0_17_8 $x334)))
(assert
 (let (($x334 (and z_1_17_6 z_1_17_7 z_1_17_8 z_1_17_9 z_1_17_10 z_1_17_11)))
 (= z_0_17_9 $x334)))
(assert
 (let (($x334 (and z_1_17_6 z_1_17_7 z_1_17_8 z_1_17_9 z_1_17_10 z_1_17_11)))
 (= z_0_17_10 $x334)))
(assert
 (let (($x334 (and z_1_17_6 z_1_17_7 z_1_17_8 z_1_17_9 z_1_17_10 z_1_17_11)))
 (= z_0_17_11 $x334)))
(assert
 (let (($x355 (and z_1_18_0 z_1_18_1 z_1_18_2 z_1_18_3 z_1_18_4 z_1_18_5 z_1_18_6 z_1_18_7)))
 (= z_0_18_0 $x355)))
(assert
 (let (($x358 (and z_1_18_1 z_1_18_2 z_1_18_3 z_1_18_4 z_1_18_5 z_1_18_6 z_1_18_7)))
 (= z_0_18_1 $x358)))
(assert
 (= z_0_18_2 (and z_1_18_2 z_1_18_3 z_1_18_4 z_1_18_5 z_1_18_6 z_1_18_7)))
(assert
 (= z_0_18_3 (and z_1_18_3 z_1_18_4 z_1_18_5 z_1_18_6 z_1_18_7)))
(assert
 (let (($x367 (and z_1_18_4 z_1_18_5 z_1_18_6 z_1_18_7)))
 (= z_0_18_4 $x367)))
(assert
 (let (($x367 (and z_1_18_4 z_1_18_5 z_1_18_6 z_1_18_7)))
 (= z_0_18_5 $x367)))
(assert
 (let (($x367 (and z_1_18_4 z_1_18_5 z_1_18_6 z_1_18_7)))
 (= z_0_18_6 $x367)))
(assert
 (let (($x367 (and z_1_18_4 z_1_18_5 z_1_18_6 z_1_18_7)))
 (= z_0_18_7 $x367)))
(assert
 (let (($x385 (and z_1_19_0 z_1_19_1 z_1_19_2 z_1_19_3 z_1_19_4 z_1_19_5 z_1_19_6 z_1_19_7 z_1_19_8)))
 (= z_0_19_0 $x385)))
(assert
 (let (($x388 (and z_1_19_1 z_1_19_2 z_1_19_3 z_1_19_4 z_1_19_5 z_1_19_6 z_1_19_7 z_1_19_8)))
 (= z_0_19_1 $x388)))
(assert
 (let (($x391 (and z_1_19_2 z_1_19_3 z_1_19_4 z_1_19_5 z_1_19_6 z_1_19_7 z_1_19_8)))
 (= z_0_19_2 $x391)))
(assert
 (= z_0_19_3 (and z_1_19_3 z_1_19_4 z_1_19_5 z_1_19_6 z_1_19_7 z_1_19_8)))
(assert
 (let (($x397 (and z_1_19_4 z_1_19_5 z_1_19_6 z_1_19_7 z_1_19_8)))
 (= z_0_19_4 $x397)))
(assert
 (let (($x397 (and z_1_19_4 z_1_19_5 z_1_19_6 z_1_19_7 z_1_19_8)))
 (= z_0_19_5 $x397)))
(assert
 (let (($x397 (and z_1_19_4 z_1_19_5 z_1_19_6 z_1_19_7 z_1_19_8)))
 (= z_0_19_6 $x397)))
(assert
 (let (($x397 (and z_1_19_4 z_1_19_5 z_1_19_6 z_1_19_7 z_1_19_8)))
 (= z_0_19_7 $x397)))
(assert
 (let (($x397 (and z_1_19_4 z_1_19_5 z_1_19_6 z_1_19_7 z_1_19_8)))
 (= z_0_19_8 $x397)))
(assert
 (= z_0_0_0 true))
(assert
 (= z_0_1_0 true))
(assert
 (= z_0_2_0 true))
(assert
 (= z_0_3_0 true))
(assert
 (= z_0_4_0 true))
(assert
 (= z_0_5_0 true))
(assert
 (= z_0_6_0 true))
(assert
 (= z_0_7_0 true))
(assert
 (= z_0_8_0 true))
(assert
 (= z_0_9_0 true))
(assert
 (= z_0_10_0 false))
(assert
 (= z_0_11_0 false))
(assert
 (= z_0_12_0 false))
(assert
 (= z_0_13_0 false))
(assert
 (= z_0_14_0 false))
(assert
 (= z_0_15_0 false))
(assert
 (= z_0_16_0 false))
(assert
 (= z_0_17_0 false))
(assert
 (= z_0_18_0 false))
(assert
 (= z_0_19_0 false))
(assert
 (let (($x437 (= z_1_0_0 z_1_1_0)))
 (and $x437)))
(assert
 (let (($x439 (= z_1_0_0 z_1_2_0)))
 (and $x439)))
(assert
 (let (($x441 (= z_1_0_0 z_1_3_0)))
 (and $x441)))
(assert
 (let (($x443 (= z_1_0_0 z_1_4_0)))
 (and $x443)))
(assert
 (let (($x445 (= z_1_0_0 z_1_5_0)))
 (and $x445)))
(assert
 (let (($x447 (= z_1_0_0 z_1_6_0)))
 (and $x447)))
(assert
 (let (($x449 (= z_1_0_0 z_1_7_0)))
 (and $x449)))
(assert
 (let (($x451 (= z_1_0_0 z_1_8_0)))
 (and $x451)))
(assert
 (let (($x453 (= z_1_0_0 z_1_9_0)))
 (and $x453)))
(assert
 (let (($x455 (= z_1_1_0 z_1_2_0)))
 (and $x455)))
(assert
 (let (($x457 (= z_1_1_0 z_1_3_0)))
 (and $x457)))
(assert
 (let (($x459 (= z_1_1_0 z_1_4_0)))
 (and $x459)))
(assert
 (let (($x461 (= z_1_1_0 z_1_5_0)))
 (and $x461)))
(assert
 (let (($x463 (= z_1_1_0 z_1_6_0)))
 (and $x463)))
(assert
 (let (($x465 (= z_1_1_0 z_1_7_0)))
 (and $x465)))
(assert
 (let (($x467 (= z_1_1_0 z_1_8_0)))
 (and $x467)))
(assert
 (let (($x469 (= z_1_1_0 z_1_9_0)))
 (and $x469)))
(assert
 (let (($x471 (= z_1_2_0 z_1_3_0)))
 (and $x471)))
(assert
 (let (($x473 (= z_1_2_0 z_1_4_0)))
 (and $x473)))
(assert
 (let (($x475 (= z_1_2_0 z_1_5_0)))
 (and $x475)))
(assert
 (let (($x477 (= z_1_2_0 z_1_6_0)))
 (and $x477)))
(assert
 (let (($x479 (= z_1_2_0 z_1_7_0)))
 (and $x479)))
(assert
 (let (($x481 (= z_1_2_0 z_1_8_0)))
 (and $x481)))
(assert
 (let (($x483 (= z_1_2_0 z_1_9_0)))
 (and $x483)))
(assert
 (let (($x485 (= z_1_3_0 z_1_4_0)))
 (and $x485)))
(assert
 (let (($x487 (= z_1_3_0 z_1_5_0)))
 (and $x487)))
(assert
 (let (($x489 (= z_1_3_0 z_1_6_0)))
 (and $x489)))
(assert
 (let (($x491 (= z_1_3_0 z_1_7_0)))
 (and $x491)))
(assert
 (let (($x493 (= z_1_3_0 z_1_8_0)))
 (and $x493)))
(assert
 (let (($x495 (= z_1_3_0 z_1_9_0)))
 (and $x495)))
(assert
 (let (($x497 (= z_1_4_0 z_1_5_0)))
 (and $x497)))
(assert
 (let (($x499 (= z_1_4_0 z_1_6_0)))
 (and $x499)))
(assert
 (let (($x501 (= z_1_4_0 z_1_7_0)))
 (and $x501)))
(assert
 (let (($x503 (= z_1_4_0 z_1_8_0)))
 (and $x503)))
(assert
 (let (($x505 (= z_1_4_0 z_1_9_0)))
 (and $x505)))
(assert
 (let (($x507 (= z_1_5_0 z_1_6_0)))
 (and $x507)))
(assert
 (let (($x509 (= z_1_5_0 z_1_7_0)))
 (and $x509)))
(assert
 (let (($x511 (= z_1_5_0 z_1_8_0)))
 (and $x511)))
(assert
 (let (($x513 (= z_1_5_0 z_1_9_0)))
 (and $x513)))
(assert
 (let (($x515 (= z_1_6_0 z_1_7_0)))
 (and $x515)))
(assert
 (let (($x517 (= z_1_6_0 z_1_8_0)))
 (and $x517)))
(assert
 (let (($x519 (= z_1_6_0 z_1_9_0)))
 (and $x519)))
(assert
 (let (($x521 (= z_1_7_0 z_1_8_0)))
 (and $x521)))
(assert
 (let (($x523 (= z_1_7_0 z_1_9_0)))
 (and $x523)))
(assert
 (let (($x525 (= z_1_8_0 z_1_9_0)))
 (and $x525)))
(assert
 (let (($x527 (= z_1_10_2 z_1_13_2)))
 (and $x527)))
(assert
 (let (($x529 (= z_1_10_3 z_1_13_3)))
 (and $x529)))
(assert
 (let (($x531 (= z_1_10_4 z_1_13_4)))
 (and $x531)))
(assert
 (let (($x533 (= z_1_10_5 z_1_13_5)))
 (and $x533)))
(assert
 (let (($x535 (= z_1_10_6 z_1_13_6)))
 (and $x535)))
(assert
 (let (($x537 (= z_1_10_7 z_1_13_7)))
 (and $x537)))
(assert
 (let (($x539 (= z_1_10_8 z_1_13_8)))
 (and $x539)))
(assert
 (let (($x541 (= z_1_10_2 z_1_19_2)))
 (and $x541)))
(assert
 (let (($x543 (= z_1_10_3 z_1_19_3)))
 (and $x543)))
(assert
 (let (($x545 (= z_1_10_4 z_1_19_4)))
 (and $x545)))
(assert
 (let (($x547 (= z_1_10_5 z_1_19_5)))
 (and $x547)))
(assert
 (let (($x549 (= z_1_10_6 z_1_19_6)))
 (and $x549)))
(assert
 (let (($x551 (= z_1_10_7 z_1_19_7)))
 (and $x551)))
(assert
 (let (($x553 (= z_1_10_8 z_1_19_8)))
 (and $x553)))
(assert
 (let (($x555 (= z_1_11_6 z_1_18_7)))
 (and $x555)))
(assert
 (let (($x557 (= z_1_11_7 z_1_18_4)))
 (and $x557)))
(assert
 (let (($x559 (= z_1_11_8 z_1_18_5)))
 (and $x559)))
(assert
 (let (($x561 (= z_1_11_9 z_1_18_6)))
 (and $x561)))
(assert
 (let (($x563 (= z_1_13_0 z_1_19_0)))
 (and $x563)))
(assert
 (let (($x565 (= z_1_13_1 z_1_19_1)))
 (and $x565)))
(assert
 (let (($x567 (= z_1_13_2 z_1_19_2)))
 (and $x567)))
(assert
 (let (($x569 (= z_1_13_3 z_1_19_3)))
 (and $x569)))
(assert
 (let (($x571 (= z_1_13_4 z_1_19_4)))
 (and $x571)))
(assert
 (let (($x573 (= z_1_13_5 z_1_19_5)))
 (and $x573)))
(assert
 (let (($x575 (= z_1_13_6 z_1_19_6)))
 (and $x575)))
(assert
 (let (($x577 (= z_1_13_7 z_1_19_7)))
 (and $x577)))
(assert
 (let (($x579 (= z_1_13_8 z_1_19_8)))
 (and $x579)))
(check-sat)

